benchmarks_vrp/CMT1/fixed_c/CMT1_9.vrp
NAME: CMT1_9
TYPE: CVRP
COMMENT: 524.61 - Cluster Nr.9
DIMENSION: 6
CAPACITY: 160
EDGE_WEIGHT_TYPE: EUC_2D
NODE_COORD_TYPE: TWOD_COORDS
NODE_COORD_SECTION: 
2 42 41
5 48 28
6 40 30
4 52 33
3 30 40
1 45 35
DEPOT_SECTION: 
3
-1
DEMAND_SECTION: 
2 19
6 21
4 11
3 0
1 15
5 18
EOF
