benchmarks_vrp/CMT1/fixed_c/CMT1_9.tour
NAME: CMT1_9 solution
TYPE: TOUR
TOUR_SECTION:
3 2 1 4 5 6 -1
-1
EOF